StudentsNr = 10;
InstructorsNr = 95;
DaysNr = 1;
SlotsPerDay = 20;
AvailabilitySlotsLenght = 20;
RoomNr = 1;
ProgrammNr = 1;
DegreeNr = 1;
RolesNr = 0;
CoursesNr = 2;
InstructorsProgramm = [{1}, {1}, {1}, {1}, {1}, {1}, {1}, {1}, {1}, {1}, {1}, {1}, {1}, {1}, {1}, {1}, {1}, {1}, {1}, {1}, {1}, {1}, {1}, {1}, {1}, {1}, {1}, {1}, {1}, {1}, {1}, {1}, {1}, {1}, {1}, {1}, {1}, {1}, {1}, {1}, {1}, {1}, {1}, {1}, {1}, {1}, {1}, {1}, {1}, {1}, {1}, {1}, {1}, {1}, {1}, {1}, {1}, {1}, {1}, {1}, {1}, {1}, {1}, {1}, {1}, {1}, {1}, {1}, {1}, {1}, {1}, {1}, {1}, {1}, {1}, {1}, {1}, {1}, {1}, {1}, {1}, {1}, {1}, {1}, {1}, {1}, {1}, {1}, {1}, {1}, {1}, {1}, {1}, {1}, {1}];
InstructorRolesPerProgramm = array2d(1..ProgrammNr,{},[]);
InstructorsAvailability = [|1, |1, |0, |0, |1, |1, |0, |1, |0, |0, |0, |0, |1, |0, |1, |1, |1, |1, |0, |1, |0, |0, |0, |0, |0, |1, |1, |1, |1, |0, |1, |0, |1, |0, |1, |1, |1, |1, |0, |1, |1, |1, |0, |0, |1, |0, |0, |0, |0, |0, |1, |1, |0, |1, |0, |0, |1, |1, |0, |0, |1, |1, |1, |0, |1, |0, |1, |0, |1, |1, |0, |1, |0, |1, |1, |1, |1, |1, |1, |0, |0, |0, |0, |1, |1, |1, |0, |1, |0, |1, |1, |1, |0, |1, |0|];
StudentsProgramm = [1, 1, 1, 1, 1, 1, 1, 1, 1, 1];
StudentsDegree = [1, 1, 1, 1, 1, 1, 1, 1, 1, 1];
StudentsSupervisorId = [51, 31, 85, 69, 90, 93, 68, 20, 57, 10];
StudentsCourseIds = [{}, {}, {}, {}, {}, {}, {}, {}, {}, {}];
StudentsAvailability = [|1, |0, |1, |0, |1, |0, |1, |0, |0, |1|];
TheoryticalMinCard = [1, 1, 1, 1, 1, 1, 1, 1, 1, 1];
CoursesInstructorIds = [{9, 12, 26, 57, 69, 79, 84}, {3, 9, 12, 14, 21, 23, 27, 30, 35, 37, 41, 59, 61, 64, 67, 68, 77, 81, 82, 94}];
RolesDemands = [];
RolesContinuity = [];
ExamLen = [2, 2, 2, 2, 2, 2, 2, 2, 2, 2];
LunchTsMinLen = 1;
LunchStarts = [8..13];
SupervisorAvailable = 0;
OptimalLunchLenght = [2, 1];
OptimalStartTs = [1, 1];
OptimalFinishTs = [0, 20];
MinimizeRooms = 500;
RolesSoftContinuity = array2d(1..2,{},[]);
SameDegreeInRoom = 0;
Mergeability = 2;
